%%%mzn-stat: initTime=0.005078465
%%%mzn-stat: objective=402
%%%mzn-stat: nodes=3327
%%%mzn-stat: restarts=0
%%%mzn-stat: peakDepth=127
%%%mzn-stat: solveTime=0.094365347
%%%mzn-stat: variables=496
%%%mzn-stat: propagators=350
%%%mzn-stat: failures=759
%%%mzn-stat: propagations=130846
%%%mzn-stat: nogoods=759
%%%mzn-stat: AverageConflictSize=9.438735177865613
%%%mzn-stat: NumUnitNogoodsLearned=401
%%%mzn-stat: AverageLearnedNogoodLength=7.632411067193676
%%%mzn-stat: AverageBacktrackAmount=0
%%%mzn-stat: AverageLbd=4.067193675889328
%%%mzn-stat-end
maxleg = 402;
succ = array1d(1..20,[16, 12, 15, 8, 9, 7, 20, 5, 14, 3, 1, 10, 6, 18, 13, 17, 2, 19, 11, 4]);
% time elapsed: 1.71 s
----------
==========
% time elapsed: 1.71 s
%%%mzn-stat: initTime=0.005078465
%%%mzn-stat: objective=402
%%%mzn-stat: nodes=3327
%%%mzn-stat: restarts=0
%%%mzn-stat: peakDepth=127
%%%mzn-stat: solveTime=0.09436821
%%%mzn-stat: variables=496
%%%mzn-stat: propagators=350
%%%mzn-stat: failures=759
%%%mzn-stat: propagations=130846
%%%mzn-stat: nogoods=759
%%%mzn-stat: AverageConflictSize=9.438735177865613
%%%mzn-stat: NumUnitNogoodsLearned=401
%%%mzn-stat: AverageLearnedNogoodLength=7.632411067193676
%%%mzn-stat: AverageBacktrackAmount=0
%%%mzn-stat: AverageLbd=4.067193675889328
%%%mzn-stat-end
